c not original file ! May have been modified for weighted vertex coloring problem (edges and vertices stay the same only weights may have been moved to an other file)
p edge 47 179
e 1 2
e 1 3
e 1 4
e 1 6
e 1 31
e 1 36
e 1 45
e 2 3
e 2 4
e 2 16
e 3 4
e 3 29
e 3 39
e 4 14
e 4 17
e 4 21
e 4 26
e 4 30
e 4 35
e 4 42
e 5 6
e 5 7
e 5 8
e 5 9
e 5 22
e 6 7
e 6 8
e 6 9
e 6 31
e 6 36
e 6 45
e 7 8
e 7 9
e 7 18
e 7 27
e 7 32
e 7 37
e 8 9
e 8 20
e 8 34
e 8 40
e 8 47
e 9 13
e 9 41
e 9 44
e 10 11
e 10 12
e 10 13
e 10 14
e 10 15
e 10 23
e 10 33
e 10 38
e 10 43
e 11 12
e 11 13
e 11 14
e 11 24
e 11 28
e 11 46
e 12 13
e 12 14
e 12 19
e 12 25
e 13 14
e 13 41
e 13 44
e 14 17
e 14 21
e 14 26
e 14 30
e 14 35
e 14 42
e 15 16
e 15 17
e 15 23
e 15 33
e 15 38
e 15 43
e 16 17
e 17 21
e 17 26
e 17 30
e 17 35
e 17 42
e 18 19
e 18 20
e 18 21
e 18 27
e 18 32
e 18 37
e 19 20
e 19 21
e 19 25
e 20 21
e 20 34
e 20 40
e 20 47
e 21 26
e 21 30
e 21 35
e 21 42
e 22 23
e 22 24
e 22 25
e 22 26
e 23 24
e 23 25
e 23 26
e 23 33
e 23 38
e 23 43
e 24 25
e 24 26
e 24 28
e 24 46
e 25 26
e 26 30
e 26 35
e 26 42
e 27 28
e 27 29
e 27 30
e 27 32
e 27 37
e 28 29
e 28 30
e 28 46
e 29 30
e 29 39
e 30 35
e 30 42
e 31 32
e 31 33
e 31 34
e 31 35
e 31 36
e 31 45
e 32 33
e 32 34
e 32 35
e 32 37
e 33 34
e 33 35
e 33 38
e 33 43
e 34 35
e 34 40
e 34 47
e 35 42
e 36 37
e 36 38
e 36 39
e 36 40
e 36 41
e 36 42
e 36 45
e 37 38
e 37 39
e 37 40
e 37 41
e 37 42
e 38 39
e 38 40
e 38 41
e 38 42
e 38 43
e 39 40
e 39 41
e 39 42
e 40 41
e 40 42
e 40 47
e 41 42
e 41 44
e 43 44
e 45 46
e 45 47
e 46 47
